problems/csplib-prob015/SchursLemma-models/noch/O2/lingeling/model_1_3-5-13-solution000001.eprime-solution
language ESSENCE' 1.0

letting boxes_PartitionAsSet_ExplicitR5_ExplicitVarSizeWithMarker_Marker be [1, 1, 3, 4, 4; int(1..5)]
letting boxes_PartitionAsSet_ExplicitR5_ExplicitVarSizeWithMarker_Values be
        [[1, 1, 1, 1, 1, 1, 1, 1, 1, 1, 1, 1, 1; int(1..13)], [8, 1, 1, 1, 1, 1, 1, 1, 1, 1, 1, 1, 1; int(1..13)],
         [2, 3, 7, 1, 1, 1, 1, 1, 1, 1, 1, 1, 1; int(1..13)], [4, 5, 12, 13, 1, 1, 1, 1, 1, 1, 1, 1, 1; int(1..13)],
         [6, 9, 10, 11, 1, 1, 1, 1, 1, 1, 1, 1, 1; int(1..13)]; int(1..5)]
