problems/csplib-prob015/SchursLemma-models/noch/O2/lingeling/model_1_3-5-13-solution000001.solution
language Essence 1.3

letting boxes be partition({1}, {2, 3, 7}, {4, 5, 12, 13}, {6, 9, 10, 11}, {8})
